CMD:
./solvers/bin/cadical --plain --no-reduce -t 1600 ./data/cnfs//cal107/cal107.16.cnf

c --- [ banner ] -------------------------------------------------------------
c 
c CaDiCaL SAT Solver
c Copyright (c) 2016-2024
c A. Biere, M. Fleury, N. Froleyks, K. Fazekas, F. Pollitt, T. Faller
c JKU Linz, University of Freiburg, TU Wien
c 
c Version 2.1.3 5296d3d2a9bf48c154ab2acb5e44625776d821bf
c g++ (Gentoo 12.3.1_p20230526 p2) 12.3.1 20230526 -Wall -Wextra -O3 -DNDEBUG
c Sat Aug 9 07:26:21 PDT 2025 Linux cedar2.int.cedar.computecanada.ca 5.14.0-362.24.2.el9_3.x86_64 x86_64
c 
c --- [ limit ] --------------------------------------------------------------
c 
c setting time limit to 1600 seconds real time (due to '-t 1600')
c 
c --- [ parsing input ] ------------------------------------------------------
c 
c reading DIMACS file from './data/cnfs//cal107/cal107.16.cnf'
c opening file to read './data/cnfs//cal107/cal107.16.cnf'
c found 'p cnf 479677 1365529' header
c parsed 1365529 clauses in 0.20 seconds process time
c 
c --- [ options ] ------------------------------------------------------------
c 
c   --compact=false                (different from default 'true')
c   --decompose=false              (different from default 'true')
c   --deduplicate=false            (different from default 'true')
c   --elim=false                   (different from default 'true')
c   --probe=false                  (different from default 'true')
c   --reduce=false                 (different from default 'true')
c   --subsume=false                (different from default 'true')
c   --ternary=false                (different from default 'true')
c   --transred=false               (different from default 'true')
c   --vivify=false                 (different from default 'true')
c 
c --- [ solving ] ------------------------------------------------------------
c 
c time measured in process time since initialization
c 
c  seconds   reductions  redundant   irredundant
c          MB    restarts       trail        variables
c           level   conflicts       glue           remaining
c 
c *  0.20 207  0 0   0    0    0  0% 0 1275233 458662 96%
c {  0.25 212  0 0   0    0    0  0% 0 1275233 458662 96%
c i  0.25 212 1167 0   0   34   30  9% 3 1275233 458658 96%
c }  0.35 213 919 0  16 1001  910 10% 4 1275233 458657 96%
c [  0.35 213  0 0  16 1001  910  0% 0 1275233 458657 96%
c O  0.42 213 19004 0  16 1002  911 90% 1 1275233 458657 96%
c i  0.52 213 15377 0  16 1933 1719 80% 5 1275233 458654 96%
c i  0.53 213 15354 0  16 2010 1778 80% 5 1275233 458651 96%
c ]  2.00 214 8469 0  17 3003 2687 51% 7 1275233 458651 96%
c {  2.00 214 919 0  17 3003 2687 10% 4 1275233 458651 96%
c F  2.00 214 918 0  17 3004 2688 10% 4 1275233 458651 96%
c i  3.06 215 833 0 243 4956 4484 18% 4 1275233 458647 96%
c #  3.83 216 645 0 401 6006 5458 18% 4 1275233 458646 96%
c }  4.13 216 533 0 505 7004 6370 17% 4 1275233 458646 96%
c [  4.13 216 8469 0 505 7004 6370 51% 7 1275233 458646 96%
c i  4.36 216 7572 0 506 7319 6662 50% 6 1275233 458645 96%
c i  4.36 216 7578 0 506 7329 6667 50% 6 1275233 458644 96%
c i  6.07 217 4179 0 507 9325 8556 45% 13 1275233 458632 96%
c i  6.24 217 3823 0 507 9742 8920 44% 13 1275233 458626 96%
c I  6.29 217 3649 0 507 10007 9175 45% 13 1275233 458626 96%
c 
c  seconds     reductions    redundant    irredundant
c          MB      restarts         trail         variables
c            level     conflicts        glue            remaining
c 
c i  6.34 217 2857 0 509 11363 10410 36% 12 1275233 458625 96%
c ]  6.54 218 1802 0 510 15004 13783 25% 11 1275233 458625 96%
c {  6.54 218 533 0 510 15004 13783 17% 4 1275233 458625 96%
c B  6.57 218 533 0 510 15008 13787 17% 4 1275233 458625 96%
c i  6.59 218 531 0 512 15044 13816 17% 4 1275233 458623 96%
c i  7.80 219 375 0 916 17695 16218 16% 5 1275233 458619 96%
c i  9.69 220 309 0 1380 20385 18677 16% 5 1275233 458617 96%
c W 10.13 219 292 0 1429 21009 19257 15% 5 1253627 458616 96%
c i 10.52 219 274 0 1595 22085 20252 15% 5 1253627 458613 96%
c i 12.04 219 213 0 2283 26907 24647 14% 5 1253627 458610 96%
c i 12.24 219 207 0 2351 27632 25338 14% 5 1253627 458608 96%
c F 12.40 219 205 0 2383 28010 25692 14% 5 1253627 458607 96%
c i 13.74 219 187 0 2834 30848 28303 14% 6 1253627 458605 96%
c } 13.85 219 187 0 2863 31004 28452 14% 6 1253627 458604 96%
c [ 13.86 219 1802 0 2863 31004 28452 25% 11 1253627 458604 96%
c i 13.97 219 1715 0 2863 31534 28928 24% 10 1253627 458601 96%
c i 13.98 219 1707 0 2863 31588 28978 24% 10 1253627 458599 96%
c i 14.27 219 1615 0 2863 32310 29647 25% 12 1253627 458596 96%
c i 14.49 219 1553 0 2863 32837 30145 26% 13 1253627 458592 96%
c i 14.65 219 1513 0 2863 33199 30479 26% 13 1253627 458590 96%
c 
c  seconds     reductions     redundant    irredundant
c          MB      restarts          trail         variables
c            level      conflicts        glue            remaining
c 
c i 14.65 219 1511 0 2863 33217 30493 26% 13 1253627 458587 96%
c i 14.81 219 1463 0 2864 33692 30930 26% 14 1253627 458584 96%
c i 14.85 219 1426 0 2864 34076 31285 26% 14 1253627 458581 96%
c i 14.87 219 1410 0 2864 34251 31447 26% 14 1253627 458577 96%
... skipped 232 lines ...
c i 522.96 515 113 0 61288 1316982 859140 24% 12 1243361 456575 95%
c # 527.08 517 120 0 61459 1326095 867808 24% 12 1243361 456575 95%
c B 559.60 517 124 0 65342 1378096 916179 26% 12 1243361 456575 95%
c i 562.53 517 123 0 65779 1380690 918451 26% 12 1243361 456572 95%
c i 565.43 517 123 0 66035 1383890 921403 26% 12 1243361 456571 95%
c W 606.77 553 122 0 69228 1431098 963790 25% 12 1243307 456571 95%
c i 622.64 554 119 0 70598 1450513 981219 25% 12 1243307 456570 95%
c F 657.57 555 115 0 73749 1485099 1012712 24% 12 1243307 456570 95%
c B 707.24 555 120 0 78076 1540100 1063588 24% 12 1243307 456570 95%
c 
c  seconds     reductions         redundant     irredundant
c           MB      restarts              trail         variables
c             level       conflicts           glue            remaining
c 
c i 746.04 566 112 0 81111 1582045 1101905 24% 12 1243307 456569 95%
c W 765.89 595 109 0 83111 1596101 1114700 24% 13 1243301 456569 95%
c i 766.73 595 109 0 83178 1596597 1115159 24% 13 1243301 456567 95%
c i 771.85 597 108 0 83634 1601455 1119576 23% 13 1243301 456564 95%
c # 825.18 599 105 0 88024 1653102 1166439 23% 13 1243301 456563 95%
c i 847.46 599 106 0 89925 1672605 1184392 23% 13 1243301 456560 95%
c B 884.83 600 103 0 93501 1711107 1219199 22% 13 1243301 456560 95%
c W 936.21 645 119 0 96892 1770114 1274146 24% 13 1243271 456560 95%
c F 1010.62 650 103 0 102627 1830115 1328690 22% 13 1243271 456560 95%
c B 1079.01 650 90 0 107593 1891118 1383930 20% 13 1243271 456560 95%
c W 1157.81 669 88 0 113053 1953119 1440245 20% 13 1243271 456560 95%
c # 1242.94 688 85 0 118862 2016120 1497718 20% 13 1243271 456560 95%
c } 1288.52 696 84 0 122018 2047005 1525932 21% 13 1243271 456560 95%
c [ 1288.52 696 689 0 122018 2047005 1525932 21% 27 1243271 456560 95%
c I 1309.99 705 549 0 122033 2080121 1556451 22% 26 1243271 456560 95%
c B 1329.54 724 302 0 122053 2145123 1606529 20% 26 1243271 456560 95%
c W 1354.49 739 175 0 122069 2211125 1643596 23% 28 1243271 456560 95%
c O 1379.99 759 111 0 122070 2278127 1696892 25% 30 1243271 456560 95%
c B 1409.19 787 93 0 122071 2346128 1762719 23% 32 1243271 456560 95%
c W 1443.84 819 98 0 122071 2415129 1828799 22% 37 1243271 456560 95%
c 
c   seconds    reductions          redundant     irredundant
c            MB     restarts               trail         variables
c             level        conflicts           glue            remaining
c 
c I 1475.92 839 71 0 122101 2485133 1881562 19% 37 1243271 456560 95%
c i 1498.87 867 56 0 122124 2548305 1934570 17% 35 1243271 456559 95%
c B 1501.69 869 54 0 122127 2556134 1941702 17% 35 1243271 456559 95%
c W 1537.74 1069 43 0 122139 2628135 2001017 15% 31 1243268 456559 95%
c O 1566.69 1069 34 0 122165 2701136 2043896 13% 28 1243268 456559 95%
c ] 1591.35 1071 48 0 122192 2755280 2091750 16% 38 1243268 456559 95%
c ? 1591.35 1071 48 0 122192 2755280 2091750 16% 38 1243268 456559 95%
c 
c --- [ result ] -------------------------------------------------------------
c 
c UNKNOWN
c 
c --- [ run-time profiling ] -------------------------------------------------
c 
c process time taken by individual solving procedures
c (percentage relative to process time for solving)
c 
c      1591.15  100.00% search
c      1096.39   68.91% unstable
c       485.82   30.53% stable
c         8.89    0.56% walk
c         0.20    0.01% parse
c         0.05    0.00% lucky
c         0.00    0.00% simplify
c   =================================
c      1591.15   99.99% solve
c 
c last line shows process time for solving
c (percentage relative to total process time)
c 
c --- [ statistics ] ---------------------------------------------------------
c 
c chronological:            605927        21.99 %  of conflicts
c conflicts:               2755280      1731.63    per second
c decisions:              13223878      8310.89    per second
c fixed:                     23117         4.82 %  of all variables
c learned:                 2684499        97.43 %  per conflict
c learned_lits:          259984932       100.00 %  learned literals
c minimized:                     0         0.00 %  learned literals
c shrunken:               81378760        31.30 %  learned literals
c minishrunken:           63080024        24.26 %  learned literals
c otfs:                       6624         0.24 %  of conflict
c propagations:        13266178090         8.34 M  per second
c rephased:                     73     37743.56    interval
c restarts:                 122192        22.55    interval
c stabilizing:                   6        50.45 %  of conflicts
c subsumed:                 366359         9.25 %  of all clauses
c strengthened:               6166         0.16 %  of all clauses
c walked:                       23    119794.78    interval
c 
c seconds are measured in process time for solving
c 
c --- [ resources ] ----------------------------------------------------------
c 
c total process time since initialization:      1591.35    seconds
c total real time since initialization:         1600.00    seconds
c maximum resident set size of process:         1329.57    MB
c 
c --- [ shutting down ] ------------------------------------------------------
c 
c exit 0
